clingo version 5.3.0
Reading from Neo4j_pro1.lp ...
Solving...
Answer: 1
conclude("病人1",diseasediagnose1,"社区获得性肺炎")
SATISFIABLE

Models       : 1
Calls        : 1
Time         : 0.030s (Solving: 0.00s 1st Model: 0.00s Unsat: 0.00s)
CPU Time     : 0.031s
